results_rootrelaxation/bin012_080_034.srr.sol
solution status: optimal solution found
objective value:                     16.1481481481482
_var684_                            0.185185185185185 	(obj:2)
_var691_                            0.111111111111111 	(obj:1)
_var704_                           0.0370370370370355 	(obj:2)
_var726_                            0.185185185185183 	(obj:1)
_var727_                            0.629629629629628 	(obj:0)
_var728_                            0.777777777777778 	(obj:1)
_var740_                            0.444444444444442 	(obj:1)
_var747_                            0.185185185185185 	(obj:1)
_var748_                           0.0740740740740744 	(obj:1)
_var751_                            0.111111111111111 	(obj:2)
_var753_                            0.555555555555556 	(obj:1)
_var756_                            0.370370370370371 	(obj:2)
_var757_                            0.814814814814814 	(obj:0)
_var762_                           0.0370370370370383 	(obj:2)
_var763_                            0.222222222222222 	(obj:1)
_var765_                           0.0740740740740742 	(obj:3)
_var766_                            0.259259259259258 	(obj:3)
_var767_                            0.111111111111111 	(obj:1)
_var768_                           0.0740740740740742 	(obj:2)
_var775_                            0.222222222222222 	(obj:2)
_var777_                            0.518518518518519 	(obj:2)
_var787_                            0.481481481481482 	(obj:2)
_var793_                            0.111111111111112 	(obj:1)
_var795_                            0.296296296296297 	(obj:2)
_var804_                            0.111111111111112 	(obj:1)
_var811_                           0.0370370370370378 	(obj:2)
_var818_                            0.111111111111112 	(obj:2)
_var821_                           0.0370370370370369 	(obj:3)
_var824_                            0.222222222222222 	(obj:2)
_var828_                           0.0370370370370394 	(obj:2)
_var829_                            0.407407407407406 	(obj:2)
_var846_                            0.185185185185185 	(obj:1)
_var851_                           0.0740740740740742 	(obj:2)
_var855_                            0.222222222222222 	(obj:1)
_var857_                           0.0740740740740749 	(obj:2)
_var859_                            0.111111111111111 	(obj:1)
_var861_                           0.0740740740740745 	(obj:2)
_var862_                            0.185185185185184 	(obj:3)
_var863_                            0.222222222222222 	(obj:2)
_var866_                            0.111111111111111 	(obj:1)
_var869_                           0.0370370370370394 	(obj:2)
_var870_                           0.0370370370370373 	(obj:1)
_var874_                            0.222222222222221 	(obj:3)
_var875_                           0.0370370370370373 	(obj:3)
_var878_                           0.0740740740740742 	(obj:1)
_var883_                            0.148148148148147 	(obj:3)
_var884_                            0.148148148148149 	(obj:3)
_var885_                            0.148148148148148 	(obj:2)
_var886_                            0.222222222222221 	(obj:1)
_var887_                           0.0740740740740742 	(obj:2)
_var890_                           0.0740740740740749 	(obj:2)
_var893_                            0.259259259259258 	(obj:2)
_var895_                           0.0370370370370369 	(obj:1)
_var896_                            0.074074074074073 	(obj:3)
_var899_                            0.185185185185188 	(obj:1)
_var900_                           0.0370370370370373 	(obj:2)
_var902_                            0.074074074074075 	(obj:1)
