results_rootrelaxation/bin012_080_034.srr.log
SCIP version 8.0.3.5 [precision: 8 byte] [memory: block] [mode: optimized] [LP solver: Soplex 6.0.1.3] [GitHash: 438792519e]
Copyright (c) 2002-2023 Zuse Institute Berlin (ZIB)

External libraries: 
  Readline 8.1         GNU library for command line editing (gnu.org/s/readline)
  Soplex 6.0.1.3       Linear Programming Solver developed at Zuse Institute Berlin (soplex.zib.de) [GitHash: 713be0fe]
  CppAD 20180000.0     Algorithmic Differentiation of C++ algorithms developed by B. Bell (github.com/coin-or/CppAD)
  ZLIB 1.2.11          General purpose compression library by J. Gailly and M. Adler (zlib.net)
  bliss 0.77           Computing Graph Automorphism Groups by T. Junttila and P. Kaski (www.tcs.hut.fi/Software/bliss/)

user parameter file <scip.set> not found - using default parameters

srr/relaxation = TRUE

read problem <instances/bin012_080_034.srr>
============

Original problem: 
original problem has 0 variables (0 bin, 0 int, 0 impl, 0 cont) and 77 constraints

presolving:
presolving (1 rounds: 1 fast, 1 medium, 1 exhaustive):
 0 deleted vars, 0 deleted constraints, 0 added constraints, 0 tightened bounds, 0 added holes, 0 changed sides, 0 changed coefficients
 0 implications, 0 cliques
presolved problem has 0 variables (0 bin, 0 int, 0 impl, 0 cont) and 77 constraints
     77 constraints of type <linear>
Presolving Time: 0.00

 time | node  | left  |LP iter|LP it/n|mem/heur|mdpt |vars |cons |rows |cuts |sepa|confs|strbr|  dualbound   | primalbound  |  gap   | compl. 
  0.0s|     1 |     0 |     1 |     - |   710k |   0 |   1 |  77 |  77 |   0 |  0 |   0 |   0 |      --      |      --      |    Inf | unknown
r 0.0s|     1 |     0 |  1107 |     - |simplero|   0 | 656 |  77 |  77 |   0 |  0 |   0 |   0 |      --      | 3.626989e+01 |    Inf | unknown
r 0.0s|     1 |     0 |  1155 |     - |simplero|   0 | 667 |  77 |  77 |   0 |  0 |   0 |   0 |      --      | 3.320223e+01 |    Inf | unknown
r 0.0s|     1 |     0 |  1193 |     - |simplero|   0 | 678 |  77 |  77 |   0 |  0 |   0 |   0 |      --      | 3.159020e+01 |    Inf | unknown
r 0.0s|     1 |     0 |  1218 |     - |simplero|   0 | 689 |  77 |  77 |   0 |  0 |   0 |   0 |      --      | 3.043068e+01 |    Inf | unknown
r 0.0s|     1 |     0 |  1233 |     - |simplero|   0 | 689 |  77 |  77 |   0 |  0 |   0 |   0 |      --      | 3.039007e+01 |    Inf | unknown
r 0.1s|     1 |     0 |  1276 |     - |simplero|   0 | 700 |  77 |  77 |   0 |  0 |   0 |   0 |      --      | 2.864056e+01 |    Inf | unknown
r 0.1s|     1 |     0 |  1281 |     - |simplero|   0 | 700 |  77 |  77 |   0 |  0 |   0 |   0 |      --      | 2.861704e+01 |    Inf | unknown
r 0.1s|     1 |     0 |  1344 |     - |simplero|   0 | 711 |  77 |  77 |   0 |  0 |   0 |   0 |      --      | 2.678764e+01 |    Inf | unknown
r 0.1s|     1 |     0 |  1345 |     - |simplero|   0 | 711 |  77 |  77 |   0 |  0 |   0 |   0 |      --      | 2.678734e+01 |    Inf | unknown
r 0.1s|     1 |     0 |  1392 |     - |simplero|   0 | 722 |  77 |  77 |   0 |  0 |   0 |   0 |      --      | 2.552755e+01 |    Inf | unknown
r 0.1s|     1 |     0 |  1421 |     - |simplero|   0 | 722 |  77 |  77 |   0 |  0 |   0 |   0 |      --      | 2.509022e+01 |    Inf | unknown
r 0.1s|     1 |     0 |  1442 |     - |simplero|   0 | 722 |  77 |  77 |   0 |  0 |   0 |   0 |      --      | 2.493275e+01 |    Inf | unknown
r 0.1s|     1 |     0 |  1446 |     - |simplero|   0 | 722 |  77 |  77 |   0 |  0 |   0 |   0 |      --      | 2.492924e+01 |    Inf | unknown
r 0.1s|     1 |     0 |  1491 |     - |simplero|   0 | 733 |  77 |  77 |   0 |  0 |   0 |   0 |      --      | 2.311552e+01 |    Inf | unknown
 time | node  | left  |LP iter|LP it/n|mem/heur|mdpt |vars |cons |rows |cuts |sepa|confs|strbr|  dualbound   | primalbound  |  gap   | compl. 
r 0.1s|     1 |     0 |  1511 |     - |simplero|   0 | 733 |  77 |  77 |   0 |  0 |   0 |   0 |      --      | 2.301049e+01 |    Inf | unknown
r 0.1s|     1 |     0 |  1538 |     - |simplero|   0 | 744 |  77 |  77 |   0 |  0 |   0 |   0 |      --      | 2.219377e+01 |    Inf | unknown
r 0.1s|     1 |     0 |  1545 |     - |simplero|   0 | 744 |  77 |  77 |   0 |  0 |   0 |   0 |      --      | 2.207756e+01 |    Inf | unknown
r 0.1s|     1 |     0 |  1574 |     - |simplero|   0 | 755 |  77 |  77 |   0 |  0 |   0 |   0 |      --      | 2.134651e+01 |    Inf | unknown
r 0.1s|     1 |     0 |  1591 |     - |simplero|   0 | 755 |  77 |  77 |   0 |  0 |   0 |   0 |      --      | 2.116549e+01 |    Inf | unknown
r 0.1s|     1 |     0 |  1595 |     - |simplero|   0 | 755 |  77 |  77 |   0 |  0 |   0 |   0 |      --      | 2.114747e+01 |    Inf | unknown
r 0.1s|     1 |     0 |  1643 |     - |simplero|   0 | 766 |  77 |  77 |   0 |  0 |   0 |   0 |      --      | 1.995819e+01 |    Inf | unknown
r 0.1s|     1 |     0 |  1657 |     - |simplero|   0 | 766 |  77 |  77 |   0 |  0 |   0 |   0 |      --      | 1.987322e+01 |    Inf | unknown
r 0.1s|     1 |     0 |  1661 |     - |simplero|   0 | 766 |  77 |  77 |   0 |  0 |   0 |   0 |      --      | 1.987203e+01 |    Inf | unknown
r 0.1s|     1 |     0 |  1669 |     - |simplero|   0 | 766 |  77 |  77 |   0 |  0 |   0 |   0 |      --      | 1.986381e+01 |    Inf | unknown
r 0.1s|     1 |     0 |  1717 |     - |simplero|   0 | 777 |  77 |  77 |   0 |  0 |   0 |   0 |      --      | 1.917352e+01 |    Inf | unknown
r 0.1s|     1 |     0 |  1732 |     - |simplero|   0 | 777 |  77 |  77 |   0 |  0 |   0 |   0 |      --      | 1.911045e+01 |    Inf | unknown
r 0.1s|     1 |     0 |  1764 |     - |simplero|   0 | 788 |  77 |  77 |   0 |  0 |   0 |   0 |      --      | 1.834968e+01 |    Inf | unknown
r 0.1s|     1 |     0 |  1789 |     - |simplero|   0 | 788 |  77 |  77 |   0 |  0 |   0 |   0 |      --      | 1.802479e+01 |    Inf | unknown
r 0.1s|     1 |     0 |  1797 |     - |simplero|   0 | 788 |  77 |  77 |   0 |  0 |   0 |   0 |      --      | 1.799457e+01 |    Inf | unknown
 time | node  | left  |LP iter|LP it/n|mem/heur|mdpt |vars |cons |rows |cuts |sepa|confs|strbr|  dualbound   | primalbound  |  gap   | compl. 
r 0.1s|     1 |     0 |  1800 |     - |simplero|   0 | 788 |  77 |  77 |   0 |  0 |   0 |   0 |      --      | 1.799203e+01 |    Inf | unknown
r 0.1s|     1 |     0 |  1844 |     - |simplero|   0 | 799 |  77 |  77 |   0 |  0 |   0 |   0 |      --      | 1.761017e+01 |    Inf | unknown
r 0.1s|     1 |     0 |  1861 |     - |simplero|   0 | 799 |  77 |  77 |   0 |  0 |   0 |   0 |      --      | 1.757272e+01 |    Inf | unknown
  0.1s|     1 |     0 |  1891 |     - |  3822k |   0 | 810 |  77 |  77 |   0 |  0 |   0 |   0 |      --      | 1.757272e+01 |    Inf | unknown
r 0.1s|     1 |     0 |  1891 |     - |simplero|   0 | 810 |  77 |  77 |   0 |  0 |   0 |   0 |      --      | 1.723601e+01 |    Inf | unknown
r 0.1s|     1 |     0 |  1896 |     - |simplero|   0 | 810 |  77 |  77 |   0 |  0 |   0 |   0 |      --      | 1.722636e+01 |    Inf | unknown
r 0.1s|     1 |     0 |  1932 |     - |simplero|   0 | 821 |  77 |  77 |   0 |  0 |   0 |   0 |      --      | 1.703005e+01 |    Inf | unknown
r 0.1s|     1 |     0 |  1936 |     - |simplero|   0 | 821 |  77 |  77 |   0 |  0 |   0 |   0 |      --      | 1.702785e+01 |    Inf | unknown
r 0.1s|     1 |     0 |  1938 |     - |simplero|   0 | 821 |  77 |  77 |   0 |  0 |   0 |   0 |      --      | 1.702617e+01 |    Inf | unknown
r 0.1s|     1 |     0 |  1977 |     - |simplero|   0 | 832 |  77 |  77 |   0 |  0 |   0 |   0 |      --      | 1.679302e+01 |    Inf | unknown
r 0.1s|     1 |     0 |  1990 |     - |simplero|   0 | 832 |  77 |  77 |   0 |  0 |   0 |   0 |      --      | 1.678716e+01 |    Inf | unknown
r 0.1s|     1 |     0 |  1995 |     - |simplero|   0 | 832 |  77 |  77 |   0 |  0 |   0 |   0 |      --      | 1.678571e+01 |    Inf | unknown
r 0.1s|     1 |     0 |  2017 |     - |simplero|   0 | 843 |  77 |  77 |   0 |  0 |   0 |   0 |      --      | 1.661627e+01 |    Inf | unknown
r 0.1s|     1 |     0 |  2039 |     - |simplero|   0 | 843 |  77 |  77 |   0 |  0 |   0 |   0 |      --      | 1.656128e+01 |    Inf | unknown
r 0.1s|     1 |     0 |  2069 |     - |simplero|   0 | 854 |  77 |  77 |   0 |  0 |   0 |   0 |      --      | 1.647573e+01 |    Inf | unknown
 time | node  | left  |LP iter|LP it/n|mem/heur|mdpt |vars |cons |rows |cuts |sepa|confs|strbr|  dualbound   | primalbound  |  gap   | compl. 
r 0.1s|     1 |     0 |  2076 |     - |simplero|   0 | 854 |  77 |  77 |   0 |  0 |   0 |   0 |      --      | 1.647365e+01 |    Inf | unknown
r 0.1s|     1 |     0 |  2098 |     - |simplero|   0 | 865 |  77 |  77 |   0 |  0 |   0 |   0 |      --      | 1.633333e+01 |    Inf | unknown
r 0.1s|     1 |     0 |  2135 |     - |simplero|   0 | 875 |  77 |  77 |   0 |  0 |   0 |   0 |      --      | 1.627273e+01 |    Inf | unknown
r 0.1s|     1 |     0 |  2168 |     - |simplero|   0 | 884 |  77 |  77 |   0 |  0 |   0 |   0 |      --      | 1.626190e+01 |    Inf | unknown
r 0.1s|     1 |     0 |  2189 |     - |simplero|   0 | 891 |  77 |  77 |   0 |  0 |   0 |   0 |      --      | 1.621538e+01 |    Inf | unknown
r 0.1s|     1 |     0 |  2198 |     - |simplero|   0 | 891 |  77 |  77 |   0 |  0 |   0 |   0 |      --      | 1.620000e+01 |    Inf | unknown
r 0.1s|     1 |     0 |  2209 |     - |simplero|   0 | 895 |  77 |  77 |   0 |  0 |   0 |   0 |      --      | 1.617352e+01 |    Inf | unknown
r 0.1s|     1 |     0 |  2212 |     - |simplero|   0 | 895 |  77 |  77 |   0 |  0 |   0 |   0 |      --      | 1.617333e+01 |    Inf | unknown
r 0.1s|     1 |     0 |  2220 |     - |simplero|   0 | 898 |  77 |  77 |   0 |  0 |   0 |   0 |      --      | 1.616197e+01 |    Inf | unknown
r 0.1s|     1 |     0 |  2228 |     - |simplero|   0 | 901 |  77 |  77 |   0 |  0 |   0 |   0 |      --      | 1.615190e+01 |    Inf | unknown
r 0.1s|     1 |     0 |  2231 |     - |simplero|   0 | 901 |  77 |  77 |   0 |  0 |   0 |   0 |      --      | 1.615094e+01 |    Inf | unknown
r 0.1s|     1 |     0 |  2237 |     - |simplero|   0 | 904 |  77 |  77 |   0 |  0 |   0 |   0 |      --      | 1.614815e+01 |    Inf | unknown
  0.1s|     1 |     0 |  2237 |     - |  4656k |   0 | 904 |  77 |  77 |   0 |  0 |   0 |   0 | 1.614815e+01 | 1.614815e+01 |   0.00%| unknown
  0.1s|     1 |     0 |  2237 |     - |  4656k |   0 | 904 |  77 |  77 |   0 |  0 |   0 |   0 | 1.614815e+01 | 1.614815e+01 |   0.00%| unknown

SCIP Status        : problem is solved [optimal solution found]
Solving Time (sec) : 0.10
Solving Nodes      : 1
Primal Bound       : +1.61481481481482e+01 (55 solutions)
Dual Bound         : +1.61481481481482e+01
Gap                : 0.00 %

written transformed problem to file <results_rootrelaxation/bin012_080_034.srr.lp>
written transformed problem to file <results_rootrelaxation/bin012_080_034.srr.cip>

written solution information to file <results_rootrelaxation/bin012_080_034.srr.sol>



